71 33 97 95 68 85 82 48 94 9 84 92 14 5 83 88 7 54 74 47 53 46 0 1 75 45 30 34 69 26 81 31 50 42 91 55 32 89 64 51 98 16 22 73 78 6 99 25 17 59 15 61 2 86 56 49 3 11 79 60 41 63 93 36 12 65 8 20 57 70 44 19 40 23 28 52 72 87 24 21 39 77 37 13 18 90 10 67 58 27 80 76 62 4 29 38 66 96 43 35